100
128
46
27
2
26
8
51
21
52
32
50
55
51
34
10
62
39
5
8
61
32
16
33
10
10
9
57
9
62
47
39
21
20
6
2
58
31
39
23
27
13
2
17
18
27
43
8
31
13
44
32
23
47
3
10
51
48
13
17
40
16
8
50
54
28
9
17
9
20
47
35
11
25
18
23
10
17
28
23
41
31
9
10
27
13
52
16
23
28
38
43
2
27
32
23
63
33
34
20
34
59